124097
19,66,75,13,79,45,53,12,17,20,70,65,35,25,69,61,44,72,63,28,9,0,36,47,4,21,43,81,37,1,29,5,60,77,67,18,23,30,64,49,3,51,40,38,62,52,58,7,82,27,78,34,74,10,39,31,73,57,76,16,55,50,54,41,14,68,24,22,11,2,56,33,48,46,59,42,80,71,15,32,26,6,8,19